c nIsolatedPIs 0
c maxPI 32
p cnf 240 625
c gate 33 -5 -21 0
-5 -33 0
-21 -33 0
5 21 33 0
c gate 34 -4 -20 0
-4 -34 0
-20 -34 0
4 20 34 0
c gate 35 -33 -34 0
-33 -35 0
-34 -35 0
33 34 35 0
c gate 36 1 17 0
1 -36 0
17 -36 0
-1 -17 36 0
c gate 37 2 18 0
2 -37 0
18 -37 0
-2 -18 37 0
c gate 38 -36 -37 0
-36 -38 0
-37 -38 0
36 37 38 0
c gate 39 -3 19 0
-3 -39 0
19 -39 0
3 -19 39 0
c gate 40 3 -19 0
3 -40 0
-19 -40 0
-3 19 40 0
c gate 41 -39 -40 0
-39 -41 0
-40 -41 0
39 40 41 0
c gate 42 -2 -18 0
-2 -42 0
-18 -42 0
2 18 42 0
c gate 43 -41 -42 0
-41 -43 0
-42 -43 0
41 42 43 0
c gate 44 -38 43 0
-38 -44 0
43 -44 0
38 -43 44 0
c gate 45 3 19 0
3 -45 0
19 -45 0
-3 -19 45 0
c gate 46 4 20 0
4 -46 0
20 -46 0
-4 -20 46 0
c gate 47 -45 -46 0
-45 -47 0
-46 -47 0
45 46 47 0
c gate 48 -44 47 0
-44 -48 0
47 -48 0
44 -47 48 0
c gate 49 35 -48 0
35 -49 0
-48 -49 0
-35 48 49 0
c gate 50 -6 -22 0
-6 -50 0
-22 -50 0
6 22 50 0
c gate 51 6 22 0
6 -51 0
22 -51 0
-6 -22 51 0
c gate 52 -50 -51 0
-50 -52 0
-51 -52 0
50 51 52 0
c gate 53 5 21 0
5 -53 0
21 -53 0
-5 -21 53 0
c gate 54 52 -53 0
52 -54 0
-53 -54 0
-52 53 54 0
c gate 55 -49 54 0
-49 -55 0
54 -55 0
49 -54 55 0
c gate 56 -7 -23 0
-7 -56 0
-23 -56 0
7 23 56 0
c gate 57 7 23 0
7 -57 0
23 -57 0
-7 -23 57 0
c gate 58 -56 -57 0
-56 -58 0
-57 -58 0
56 57 58 0
c gate 59 -50 -55 0
-50 -59 0
-55 -59 0
50 55 59 0
c gate 60 58 -59 0
58 -60 0
-59 -60 0
-58 59 60 0
c gate 61 -55 -60 0
-55 -61 0
-60 -61 0
55 60 61 0
c gate 62 -10 26 0
-10 -62 0
26 -62 0
10 -26 62 0
c gate 63 -9 25 0
-9 -63 0
25 -63 0
9 -25 63 0
c gate 64 8 -24 0
8 -64 0
-24 -64 0
-8 24 64 0
c gate 65 9 -25 0
9 -65 0
-25 -65 0
-9 25 65 0
c gate 66 -64 -65 0
-64 -66 0
-65 -66 0
64 65 66 0
c gate 67 8 24 0
8 -67 0
24 -67 0
-8 -24 67 0
c gate 68 -8 -24 0
-8 -68 0
-24 -68 0
8 24 68 0
c gate 69 -67 -68 0
-67 -69 0
-68 -69 0
67 68 69 0
c gate 70 6 -22 0
6 -70 0
-22 -70 0
-6 22 70 0
c gate 71 -2 18 0
-2 -71 0
18 -71 0
2 -18 71 0
c gate 72 -1 17 0
-1 -72 0
17 -72 0
1 -17 72 0
c gate 73 -71 -72 0
-71 -73 0
-72 -73 0
71 72 73 0
c gate 74 2 -18 0
2 -74 0
-18 -74 0
-2 18 74 0
c gate 75 -40 -74 0
-40 -75 0
-74 -75 0
40 74 75 0
c gate 76 -73 75 0
-73 -76 0
75 -76 0
73 -75 76 0
c gate 77 -4 20 0
-4 -77 0
20 -77 0
4 -20 77 0
c gate 78 -39 -77 0
-39 -78 0
-77 -78 0
39 77 78 0
c gate 79 -76 78 0
-76 -79 0
78 -79 0
76 -78 79 0
c gate 80 5 -21 0
5 -80 0
-21 -80 0
-5 21 80 0
c gate 81 4 -20 0
4 -81 0
-20 -81 0
-4 20 81 0
c gate 82 -80 -81 0
-80 -82 0
-81 -82 0
80 81 82 0
c gate 83 -79 82 0
-79 -83 0
82 -83 0
79 -82 83 0
c gate 84 -5 21 0
-5 -84 0
21 -84 0
5 -21 84 0
c gate 85 -52 -84 0
-52 -85 0
-84 -85 0
52 84 85 0
c gate 86 -83 85 0
-83 -86 0
85 -86 0
83 -85 86 0
c gate 87 -70 -86 0
-70 -87 0
-86 -87 0
70 86 87 0
c gate 88 -58 -87 0
-58 -88 0
-87 -88 0
58 87 88 0
c gate 89 7 -23 0
7 -89 0
-23 -89 0
-7 23 89 0
c gate 90 -69 89 0
-69 -90 0
89 -90 0
69 -89 90 0
c gate 91 -88 -90 0
-88 -91 0
-90 -91 0
88 90 91 0
c gate 92 -69 -91 0
-69 -92 0
-91 -92 0
69 91 92 0
c gate 93 66 -92 0
66 -93 0
-92 -93 0
-66 92 93 0
c gate 94 -63 -93 0
-63 -94 0
-93 -94 0
63 93 94 0
c gate 95 10 -26 0
10 -95 0
-26 -95 0
-10 26 95 0
c gate 96 -62 -95 0
-62 -96 0
-95 -96 0
62 95 96 0
c gate 97 -94 96 0
-94 -97 0
96 -97 0
94 -96 97 0
c gate 98 -62 -97 0
-62 -98 0
-97 -98 0
62 97 98 0
c gate 99 11 27 0
11 -99 0
27 -99 0
-11 -27 99 0
c gate 100 -11 -27 0
-11 -100 0
-27 -100 0
11 27 100 0
c gate 101 -99 -100 0
-99 -101 0
-100 -101 0
99 100 101 0
c gate 102 -11 12 0
-11 -102 0
12 -102 0
11 -12 102 0
c gate 103 -28 102 0
-28 -103 0
102 -103 0
28 -102 103 0
c gate 104 101 -103 0
101 -104 0
-103 -104 0
-101 103 104 0
c gate 105 -12 -28 0
-12 -105 0
-28 -105 0
12 28 105 0
c gate 106 12 28 0
12 -106 0
28 -106 0
-12 -28 106 0
c gate 107 -105 -106 0
-105 -107 0
-106 -107 0
105 106 107 0
c gate 108 -13 -29 0
-13 -108 0
-29 -108 0
13 29 108 0
c gate 109 13 29 0
13 -109 0
29 -109 0
-13 -29 109 0
c gate 110 -108 -109 0
-108 -110 0
-109 -110 0
108 109 110 0
c gate 111 -107 -110 0
-107 -111 0
-110 -111 0
107 110 111 0
c gate 112 -104 111 0
-104 -112 0
111 -112 0
104 -111 112 0
c gate 113 -98 112 0
-98 -113 0
112 -113 0
98 -112 113 0
c gate 114 15 31 0
15 -114 0
31 -114 0
-15 -31 114 0
c gate 115 -15 -31 0
-15 -115 0
-31 -115 0
15 31 115 0
c gate 116 -114 -115 0
-114 -116 0
-115 -116 0
114 115 116 0
c gate 117 16 32 0
16 -117 0
32 -117 0
-16 -32 117 0
c gate 118 -16 -32 0
-16 -118 0
-32 -118 0
16 32 118 0
c gate 119 -117 -118 0
-117 -119 0
-118 -119 0
117 118 119 0
c gate 120 -14 -30 0
-14 -120 0
-30 -120 0
14 30 120 0
c gate 121 14 30 0
14 -121 0
30 -121 0
-14 -30 121 0
c gate 122 -120 -121 0
-120 -122 0
-121 -122 0
120 121 122 0
c gate 123 -119 -122 0
-119 -123 0
-122 -123 0
119 122 123 0
c gate 124 -116 123 0
-116 -124 0
123 -124 0
116 -123 124 0
c gate 125 113 124 0
113 -125 0
124 -125 0
-113 -124 125 0
c gate 126 113 -125 0
113 -126 0
-125 -126 0
-113 125 126 0
c gate 127 98 101 0
98 -127 0
101 -127 0
-98 -101 127 0
c gate 128 -98 -101 0
-98 -128 0
-101 -128 0
98 101 128 0
c gate 129 -127 -128 0
-127 -129 0
-128 -129 0
127 128 129 0
c gate 130 -66 96 0
-66 -130 0
96 -130 0
66 -96 130 0
c gate 131 -95 -130 0
-95 -131 0
-130 -131 0
95 130 131 0
c gate 132 101 -131 0
101 -132 0
-131 -132 0
-101 131 132 0
c gate 133 -129 -132 0
-129 -133 0
-132 -133 0
129 132 133 0
c gate 134 66 -96 0
66 -134 0
-96 -134 0
-66 96 134 0
c gate 135 -130 -134 0
-130 -135 0
-134 -135 0
130 134 135 0
c gate 136 94 -96 0
94 -136 0
-96 -136 0
-94 96 136 0
c gate 137 -97 -136 0
-97 -137 0
-136 -137 0
97 136 137 0
c gate 138 -135 -137 0
-135 -138 0
-137 -138 0
135 137 138 0
c gate 139 135 137 0
135 -139 0
137 -139 0
-135 -137 139 0
c gate 140 -10 -26 0
-10 -140 0
-26 -140 0
10 26 140 0
c gate 141 10 26 0
10 -141 0
26 -141 0
-10 -26 141 0
c gate 142 9 25 0
9 -142 0
25 -142 0
-9 -25 142 0
c gate 143 -141 -142 0
-141 -143 0
-142 -143 0
141 142 143 0
c gate 144 60 69 0
60 -144 0
69 -144 0
-60 -69 144 0
c gate 145 56 -67 0
56 -145 0
-67 -145 0
-56 67 145 0
c gate 146 -9 -25 0
-9 -146 0
-25 -146 0
9 25 146 0
c gate 147 -68 -146 0
-68 -147 0
-146 -147 0
68 146 147 0
c gate 148 -145 147 0
-145 -148 0
147 -148 0
145 -147 148 0
c gate 149 -144 148 0
-144 -149 0
148 -149 0
144 -148 149 0
c gate 150 143 -149 0
143 -150 0
-149 -150 0
-143 149 150 0
c gate 151 -140 -150 0
-140 -151 0
-150 -151 0
140 150 151 0
c gate 152 -99 -151 0
-99 -152 0
-151 -152 0
99 151 152 0
c gate 153 -100 -152 0
-100 -153 0
-152 -153 0
100 152 153 0
c gate 154 -106 -153 0
-106 -154 0
-153 -154 0
106 153 154 0
c gate 155 -105 -154 0
-105 -155 0
-154 -155 0
105 154 155 0
c gate 156 -110 155 0
-110 -156 0
155 -156 0
110 -155 156 0
c gate 157 107 110 0
107 -157 0
110 -157 0
-107 -110 157 0
c gate 158 153 157 0
153 -158 0
157 -158 0
-153 -157 158 0
c gate 159 -156 -158 0
-156 -159 0
-158 -159 0
156 158 159 0
c gate 160 36 37 0
36 -160 0
37 -160 0
-36 -37 160 0
c gate 161 61 160 0
61 -161 0
160 -161 0
-61 -160 161 0
c gate 162 -144 -161 0
-144 -162 0
-161 -162 0
144 161 162 0
c gate 163 159 162 0
159 -163 0
162 -163 0
-159 -162 163 0
c gate 164 143 -148 0
143 -164 0
-148 -164 0
-143 148 164 0
c gate 165 -100 -140 0
-100 -165 0
-140 -165 0
100 140 165 0
c gate 166 107 165 0
107 -166 0
165 -166 0
-107 -165 166 0
c gate 167 -164 166 0
-164 -167 0
166 -167 0
164 -166 167 0
c gate 168 -153 167 0
-153 -168 0
167 -168 0
153 -167 168 0
c gate 169 144 -168 0
144 -169 0
-168 -169 0
-144 168 169 0
c gate 170 159 -169 0
159 -170 0
-169 -170 0
-159 169 170 0
c gate 171 -109 -155 0
-109 -171 0
-155 -171 0
109 155 171 0
c gate 172 -108 -171 0
-108 -172 0
-171 -172 0
108 171 172 0
c gate 173 122 -172 0
122 -173 0
-172 -173 0
-122 172 173 0
c gate 174 -120 -173 0
-120 -174 0
-173 -174 0
120 173 174 0
c gate 175 -114 -174 0
-114 -175 0
-174 -175 0
114 174 175 0
c gate 176 -115 -175 0
-115 -176 0
-175 -176 0
115 175 176 0
c gate 177 119 -176 0
119 -177 0
-176 -177 0
-119 176 177 0
c gate 178 -119 176 0
-119 -178 0
176 -178 0
119 -176 178 0
c gate 179 -177 -178 0
-177 -179 0
-178 -179 0
177 178 179 0
c gate 180 -106 -109 0
-106 -180 0
-109 -180 0
106 109 180 0
c gate 181 122 180 0
122 -181 0
180 -181 0
-122 -180 181 0
c gate 182 -122 -180 0
-122 -182 0
-180 -182 0
122 180 182 0
c gate 183 -181 -182 0
-181 -183 0
-182 -183 0
181 182 183 0
c gate 184 -122 172 0
-122 -184 0
172 -184 0
122 -172 184 0
c gate 185 -173 -184 0
-173 -185 0
-184 -185 0
173 184 185 0
c gate 186 183 -185 0
183 -186 0
-185 -186 0
-183 185 186 0
c gate 187 -156 -186 0
-156 -187 0
-186 -187 0
156 186 187 0
c gate 188 -183 185 0
-183 -188 0
185 -188 0
183 -185 188 0
c gate 189 -186 -188 0
-186 -189 0
-188 -189 0
186 188 189 0
c gate 190 -184 -189 0
-184 -190 0
-189 -190 0
184 189 190 0
c gate 191 -187 -190 0
-187 -191 0
-190 -191 0
187 190 191 0
c gate 192 174 -181 0
174 -192 0
-181 -192 0
-174 181 192 0
c gate 193 -116 -174 0
-116 -193 0
-174 -193 0
116 174 193 0
c gate 194 -120 -181 0
-120 -194 0
-181 -194 0
120 181 194 0
c gate 195 116 -194 0
116 -195 0
-194 -195 0
-116 194 195 0
c gate 196 -193 -195 0
-193 -196 0
-195 -196 0
193 195 196 0
c gate 197 -192 196 0
-192 -197 0
196 -197 0
192 -196 197 0
c gate 198 -191 -197 0
-191 -198 0
-197 -198 0
191 197 198 0
c gate 199 -179 -198 0
-179 -199 0
-198 -199 0
179 198 199 0
c gate 200 179 198 0
179 -200 0
198 -200 0
-179 -198 200 0
c gate 201 -115 -195 0
-115 -201 0
-195 -201 0
115 195 201 0
c gate 202 119 -201 0
119 -202 0
-201 -202 0
-119 201 202 0
c gate 203 -119 201 0
-119 -203 0
201 -203 0
119 -201 203 0
c gate 204 -202 -203 0
-202 -204 0
-203 -204 0
202 203 204 0
c gate 205 -200 204 0
-200 -205 0
204 -205 0
200 -204 205 0
c gate 206 -199 -205 0
-199 -206 0
-205 -206 0
199 205 206 0
c gate 207 -170 206 0
-170 -207 0
206 -207 0
170 -206 207 0
c gate 208 -163 -207 0
-163 -208 0
-207 -208 0
163 207 208 0
c gate 209 58 86 0
58 -209 0
86 -209 0
-58 -86 209 0
c gate 210 -88 -209 0
-88 -210 0
-209 -210 0
88 209 210 0
c gate 211 176 202 0
176 -211 0
202 -211 0
-176 -202 211 0
c gate 212 210 -211 0
210 -212 0
-211 -212 0
-210 211 212 0
c gate 213 208 212 0
208 -213 0
212 -213 0
-208 -212 213 0
c gate 214 -117 -202 0
-117 -214 0
-202 -214 0
117 202 214 0
c gate 215 210 214 0
210 -215 0
214 -215 0
-210 -214 215 0
c gate 216 177 215 0
177 -216 0
215 -216 0
-177 -215 216 0
c gate 217 -209 -216 0
-209 -217 0
-216 -217 0
209 216 217 0
c gate 218 -213 217 0
-213 -218 0
217 -218 0
213 -217 218 0
c gate 219 -88 218 0
-88 -219 0
218 -219 0
88 -218 219 0
c gate 220 -92 -219 0
-92 -220 0
-219 -220 0
92 219 220 0
c gate 221 -63 -65 0
-63 -221 0
-65 -221 0
63 65 221 0
c gate 222 92 -221 0
92 -222 0
-221 -222 0
-92 221 222 0
c gate 223 -220 -222 0
-220 -223 0
-222 -223 0
220 222 223 0
c gate 224 -139 -223 0
-139 -224 0
-223 -224 0
139 223 224 0
c gate 225 -138 -224 0
-138 -225 0
-224 -225 0
138 224 225 0
c gate 226 -133 225 0
-133 -226 0
225 -226 0
133 -225 226 0
c gate 227 -98 132 0
-98 -227 0
132 -227 0
98 -132 227 0
c gate 228 -128 -227 0
-128 -228 0
-227 -228 0
128 227 228 0
c gate 229 -226 228 0
-226 -229 0
228 -229 0
226 -228 229 0
c gate 230 -113 -229 0
-113 -230 0
-229 -230 0
113 229 230 0
c gate 231 -126 -230 0
-126 -231 0
-230 -231 0
126 230 231 0
c gate 232 -55 -160 0
-55 -232 0
-160 -232 0
55 160 232 0
c gate 233 -231 -232 0
-231 -233 0
-232 -233 0
231 232 233 0
c gate 234 36 42 0
36 -234 0
42 -234 0
-36 -42 234 0
c gate 235 -55 234 0
-55 -235 0
234 -235 0
55 -234 235 0
c gate 236 231 235 0
231 -236 0
235 -236 0
-231 -235 236 0
c gate 237 -233 -236 0
-233 -237 0
-236 -237 0
233 236 237 0
c gate 238 61 -237 0
61 -238 0
-237 -238 0
-61 237 238 0
c gate 239 -61 237 0
-61 -239 0
237 -239 0
61 -237 239 0
c gate 240 -238 -239 0
-238 -240 0
-239 -240 0
238 239 240 0
c PO
-240 0
